% Logging successfully configured
=====UNKNOWN=====
% time elapsed: 1800.58 s
%%%mzn-stat: initTime=0.040235924
%%%mzn-stat: nodes=1680863
%%%mzn-stat: restarts=0
%%%mzn-stat: peakDepth=133
%%%mzn-stat: solveTime=1796.823419539
%%%mzn-stat: variables=3255
%%%mzn-stat: propagators=2840
%%%mzn-stat: failures=1259889
%%%mzn-stat: propagations=22297353
%%%mzn-stat: nogoods=1259889
%%%mzn-stat: numAtomicConstraintsPropagated=0
%%%mzn-stat: allDifferentNumber1TotalHallSetSize=110197481
%%%mzn-stat: allDifferentNumber1NumberOfConflicts=1258426
%%%mzn-stat: allDifferentNumber1MaxHallSetSize=138
%%%mzn-stat: allDifferentNumber1PropagationsTotal=3942977
%%%mzn-stat: allDifferentNumber1PropagationsThatFoundConflict=1258426
%%%mzn-stat: circuitNumber2PropagationsThatFoundConflict=68
%%%mzn-stat: circuitNumber2TotalFixedEdgesAtConflict=8224
%%%mzn-stat: circuitNumber2NumberOfConflicts=68
%%%mzn-stat: circuitNumber2PropagationsThatPruned=376502
%%%mzn-stat: circuitNumber2PropagationsTotal=1685997
%%%mzn-stat: AverageConflictSize=85.26769024890288
%%%mzn-stat: NumUnitNogoodsLearned=0
%%%mzn-stat: AverageLearnedNogoodLength=95.19494098289611
%%%mzn-stat: AverageBacktrackAmount=0
%%%mzn-stat: AverageLbd=77.3487569142996
%%%mzn-stat: 2AutonomousSearchNumBackupCalled=0
%%%mzn-stat: 2AutonomousSearchNumPredicatesRemoved=0
%%%mzn-stat: 2AutonomousSearchNumCalls=0
%%%mzn-stat: 2AutonomousSearchNumPredicatesAdded=3846
%%%mzn-stat: 2AutonomousSearchAverageSizeOfHeap=0
%%%mzn-stat: 2AutonomousSearchNumAssignedPredicatesEncountered=0
%%%mzn-stat-end
